p tw 159 185
1 2
2 72
3 14
4 5
5 6
6 7
7 8
7 10
8 9
9 66
10 11
11 66
12 13
13 15
13 17
14 25
15 16
16 17
16 20
17 18
18 19
19 66
20 21
21 22
22 23
23 24
24 149
25 36
26 27
27 28
27 30
28 29
29 66
30 31
31 32
32 33
33 34
34 149
35 37
36 47
37 38
38 39
39 40
39 42
40 41
41 66
42 43
43 44
43 46
44 45
45 66
46 48
47 58
48 49
49 50
50 51
50 57
51 52
51 54
52 53
53 66
54 55
55 56
56 57
57 59
58 68
59 60
60 61
61 62
61 64
62 63
63 66
64 65
65 66
66 67
68 69
69 70
70 71
71 73
72 83
73 74
73 35
74 75
75 76
75 129
76 77
77 78
77 125
78 79
79 80
79 125
80 81
81 82
82 84
83 94
84 85
85 86
86 87
87 88
87 92
88 89
89 90
89 92
90 91
91 92
91 96
92 93
93 95
94 105
95 66
96 97
97 98
98 99
99 100
100 101
101 102
102 103
103 104
104 106
105 116
106 107
107 108
107 112
108 109
109 110
109 112
110 111
111 112
111 115
112 113
113 114
114 66
115 117
116 127
117 118
118 119
119 120
120 121
120 123
121 122
122 66
123 124
124 125
125 126
126 128
127 138
128 26
129 130
130 131
131 132
131 134
132 133
133 149
134 135
135 136
136 137
136 26
137 139
138 149
139 140
140 141
140 143
141 142
142 66
143 144
144 145
144 147
145 146
146 66
147 148
148 150
149 3
150 151
151 152
152 153
152 12
153 154
153 4
154 155
154 157
155 156
156 66
157 158
158 159
159 4
